HFSDDW
15	6	3
0	87	1	20	2	57
0	64	1	92	2	79
0	34	1	29	2	51
0	48	1	95	2	15
0	29	1	35	2	50
0	13	1	9	2	51
0	86	1	26	2	59
0	52	1	12	2	92
0	86	1	38	2	62
0	33	1	66	2	7
0	9	1	83	2	97
0	37	1	35	2	52
0	10	1	63	2	18
0	13	1	87	2	86
0	98	1	12	2	37
LBCmax: 450
RELDUE
-1	236	2	1
-1	249	6	4
-1	268	4	2
-1	300	2	9
-1	245	9	9
-1	296	1	5
-1	298	3	7
-1	250	4	7
-1	241	5	9
-1	257	6	7
-1	256	2	2
-1	232	5	4
-1	283	3	3
-1	295	5	8
-1	274	1	1
DDW
224	248
237	261
244	292
279	321
220	270
269	323
289	307
235	265
222	260
249	265
230	282
223	241
269	297
268	322
266	282
